Maximize
  -9e-06 phi_16_fork_5158_mg0_slots - 9e-05 phi_16_fork_5158_mg0_hasBuffer - 9e-06 load_19_fork_16181_mg0_slots - 9e-05 load_19_fork_16181_mg0_hasBuffer - 9e-06 load_22_add_23118_mg0_slots - 9e-05 load_22_add_23118_mg0_hasBuffer - 9e-06 add_23_store_1121_mg0_slots - 9e-05 add_23_store_1121_mg0_hasBuffer - 9e-06 cst_5_add_26128_mg0_slots - 9e-05 cst_5_add_26128_mg0_hasBuffer - 9e-06 add_26_fork_6162_mg0_slots - 9e-05 add_26_fork_6162_mg0_hasBuffer - 9e-06 cst_6_icmp_27133_mg0_slots - 9e-05 cst_6_icmp_27133_mg0_hasBuffer - 9e-06 icmp_27_fork_7165_mg0_slots - 9e-05 icmp_27_fork_7165_mg0_hasBuffer - 9e-06 phiC_2_forkC_10170_mg0_slots - 9e-05 phiC_2_forkC_10170_mg0_hasBuffer - 9e-06 phiC_5_forkC_14178_mg0_slots - 9e-05 phiC_5_forkC_14178_mg0_hasBuffer - 9e-06 branch_2_phi_16107_mg0_slots - 9e-05 branch_2_phi_16107_mg0_hasBuffer - 9e-06 phi_n7_fork_13174_mg0_slots - 9e-05 phi_n7_fork_13174_mg0_hasBuffer - 9e-06 branchC_5_phiC_2136_mg0_slots - 9e-05 branchC_5_phiC_2136_mg0_hasBuffer - 9e-06 branchC_7_phiC_5140_mg0_slots - 9e-05 branchC_7_phiC_5140_mg0_hasBuffer - 9e-06 fork_5_load_19111_mg0_slots - 9e-05 fork_5_load_19111_mg0_hasBuffer - 9e-06 fork_5_add_23119_mg0_slots - 9e-05 fork_5_add_23119_mg0_hasBuffer - 9e-06 fork_5_add_26127_mg0_slots - 9e-05 fork_5_add_26127_mg0_hasBuffer - 9e-06 fork_6_icmp_27132_mg0_slots - 9e-05 fork_6_icmp_27132_mg0_hasBuffer - 9e-06 fork_6_branch_2143_mg0_slots - 9e-05 fork_6_branch_2143_mg0_hasBuffer - 9e-06 fork_7_branch_2144_mg0_slots - 9e-05 fork_7_branch_2144_mg0_hasBuffer - 9e-06 fork_7_phi_n7148_mg0_slots - 9e-05 fork_7_phi_n7148_mg0_hasBuffer - 9e-06 fork_7_branchC_5151_mg0_slots - 9e-05 fork_7_branchC_5151_mg0_hasBuffer - 9e-06 fork_7_branchC_7155_mg0_slots - 9e-05 fork_7_branchC_7155_mg0_hasBuffer - 9e-06 forkC_10_cst_5125_mg0_slots - 9e-05 forkC_10_cst_5125_mg0_hasBuffer - 9e-06 forkC_10_cst_6130_mg0_slots - 9e-05 forkC_10_cst_6130_mg0_hasBuffer - 9e-06 forkC_10_branchC_5150_mg0_slots - 9e-05 forkC_10_branchC_5150_mg0_hasBuffer - 9e-06 fork_13_phi_16106_mg0_slots - 9e-05 fork_13_phi_16106_mg0_hasBuffer - 9e-06 fork_13_phiC_2135_mg0_slots - 9e-05 fork_13_phiC_2135_mg0_hasBuffer - 9e-06 fork_13_phiC_5139_mg0_slots - 9e-05 fork_13_phiC_5139_mg0_hasBuffer - 9e-06 forkC_14_branchC_7154_mg0_slots - 9e-05 forkC_14_branchC_7154_mg0_hasBuffer - 9e-06 fork_16_load_22115_mg0_slots - 9e-05 fork_16_load_22115_mg0_hasBuffer - 9e-06 fork_16_store_1122_mg0_slots - 9e-05 fork_16_store_1122_mg0_hasBuffer + 0.9 x224
Subject to
  timePath_phi_16_out1_mg0 <= 4
  timePath_fork_5_in1_mg0 <= 4
  8 phi_16_fork_5158_mg0_flop - timePath_phi_16_out1_mg0 + timePath_fork_5_in1_mg0 >= 0
  timePath_load_19_out1_mg0 <= 4
  timePath_fork_16_in1_mg0 <= 4
  8 load_19_fork_16181_mg0_flop - timePath_load_19_out1_mg0 + timePath_fork_16_in1_mg0 >= 0
  timePath_load_22_out1_mg0 <= 4
  timePath_add_23_in1_mg0 <= 4
  8 load_22_add_23118_mg0_flop - timePath_load_22_out1_mg0 + timePath_add_23_in1_mg0 >= 0
  timePath_add_23_out1_mg0 <= 4
  timePath_store_1_in1_mg0 <= 4
  8 add_23_store_1121_mg0_flop - timePath_add_23_out1_mg0 + timePath_store_1_in1_mg0 >= 0
  timePath_cst_5_out1_mg0 <= 4
  timePath_add_26_in2_mg0 <= 4
  8 cst_5_add_26128_mg0_flop - timePath_cst_5_out1_mg0 + timePath_add_26_in2_mg0 >= 0
  timePath_add_26_out1_mg0 <= 4
  timePath_fork_6_in1_mg0 <= 4
  8 add_26_fork_6162_mg0_flop - timePath_add_26_out1_mg0 + timePath_fork_6_in1_mg0 >= 0
  timePath_cst_6_out1_mg0 <= 4
  timePath_icmp_27_in2_mg0 <= 4
  8 cst_6_icmp_27133_mg0_flop - timePath_cst_6_out1_mg0 + timePath_icmp_27_in2_mg0 >= 0
  timePath_icmp_27_out1_mg0 <= 4
  timePath_fork_7_in1_mg0 <= 4
  8 icmp_27_fork_7165_mg0_flop - timePath_icmp_27_out1_mg0 + timePath_fork_7_in1_mg0 >= 0
  timePath_phiC_2_out1_mg0 <= 4
  timePath_forkC_10_in1_mg0 <= 4
  8 phiC_2_forkC_10170_mg0_flop - timePath_phiC_2_out1_mg0 + timePath_forkC_10_in1_mg0 >= 0
  timePath_phiC_5_out1_mg0 <= 4
  timePath_forkC_14_in1_mg0 <= 4
  8 phiC_5_forkC_14178_mg0_flop - timePath_phiC_5_out1_mg0 + timePath_forkC_14_in1_mg0 >= 0
  timePath_branch_2_out2_mg0 <= 4
  timePath_phi_16_in2_mg0 <= 4
  8 branch_2_phi_16107_mg0_flop + timePath_phi_16_in2_mg0 - timePath_branch_2_out2_mg0 >= 0
  timePath_phi_n7_out1_mg0 <= 4
  timePath_fork_13_in1_mg0 <= 4
  8 phi_n7_fork_13174_mg0_flop - timePath_phi_n7_out1_mg0 + timePath_fork_13_in1_mg0 >= 0
  timePath_branchC_5_out2_mg0 <= 4
  timePath_phiC_2_in2_mg0 <= 4
  8 branchC_5_phiC_2136_mg0_flop + timePath_phiC_2_in2_mg0 - timePath_branchC_5_out2_mg0 >= 0
  timePath_branchC_7_out2_mg0 <= 4
  timePath_phiC_5_in2_mg0 <= 4
  8 branchC_7_phiC_5140_mg0_flop + timePath_phiC_5_in2_mg0 - timePath_branchC_7_out2_mg0 >= 0
  timePath_fork_5_out3_mg0 <= 4
  timePath_load_19_in2_mg0 <= 4
  8 fork_5_load_19111_mg0_flop + timePath_load_19_in2_mg0 - timePath_fork_5_out3_mg0 >= 0
  timePath_fork_5_out1_mg0 <= 4
  timePath_add_23_in2_mg0 <= 4
  8 fork_5_add_23119_mg0_flop + timePath_add_23_in2_mg0 - timePath_fork_5_out1_mg0 >= 0
  timePath_fork_5_out2_mg0 <= 4
  timePath_add_26_in1_mg0 <= 4
  8 fork_5_add_26127_mg0_flop + timePath_add_26_in1_mg0 - timePath_fork_5_out2_mg0 >= 0
  timePath_fork_6_out1_mg0 <= 4
  timePath_icmp_27_in1_mg0 <= 4
  8 fork_6_icmp_27132_mg0_flop + timePath_icmp_27_in1_mg0 - timePath_fork_6_out1_mg0 >= 0
  timePath_fork_6_out2_mg0 <= 4
  timePath_branch_2_in1_mg0 <= 4
  8 fork_6_branch_2143_mg0_flop + timePath_branch_2_in1_mg0 - timePath_fork_6_out2_mg0 >= 0
  timePath_fork_7_out1_mg0 <= 4
  timePath_branch_2_in2_mg0 <= 4
  8 fork_7_branch_2144_mg0_flop + timePath_branch_2_in2_mg0 - timePath_fork_7_out1_mg0 >= 0
  timePath_fork_7_out2_mg0 <= 4
  timePath_phi_n7_in2_mg0 <= 4
  8 fork_7_phi_n7148_mg0_flop + timePath_phi_n7_in2_mg0 - timePath_fork_7_out2_mg0 >= 0
  timePath_fork_7_out3_mg0 <= 4
  timePath_branchC_5_in2_mg0 <= 4
  8 fork_7_branchC_5151_mg0_flop + timePath_branchC_5_in2_mg0 - timePath_fork_7_out3_mg0 >= 0
  timePath_fork_7_out4_mg0 <= 4
  timePath_branchC_7_in2_mg0 <= 4
  8 fork_7_branchC_7155_mg0_flop + timePath_branchC_7_in2_mg0 - timePath_fork_7_out4_mg0 >= 0
  timePath_forkC_10_out1_mg0 <= 4
  timePath_cst_5_in1_mg0 <= 4
  8 forkC_10_cst_5125_mg0_flop + timePath_cst_5_in1_mg0 - timePath_forkC_10_out1_mg0 >= 0
  timePath_forkC_10_out3_mg0 <= 4
  timePath_cst_6_in1_mg0 <= 4
  8 forkC_10_cst_6130_mg0_flop + timePath_cst_6_in1_mg0 - timePath_forkC_10_out3_mg0 >= 0
  timePath_forkC_10_out2_mg0 <= 4
  timePath_branchC_5_in1_mg0 <= 4
  8 forkC_10_branchC_5150_mg0_flop + timePath_branchC_5_in1_mg0 - timePath_forkC_10_out2_mg0 >= 0
  timePath_fork_13_out1_mg0 <= 4
  timePath_phi_16_in1_mg0 <= 4
  8 fork_13_phi_16106_mg0_flop + timePath_phi_16_in1_mg0 - timePath_fork_13_out1_mg0 >= 0
  timePath_fork_13_out2_mg0 <= 4
  timePath_phiC_2_in1_mg0 <= 4
  8 fork_13_phiC_2135_mg0_flop + timePath_phiC_2_in1_mg0 - timePath_fork_13_out2_mg0 >= 0
  timePath_fork_13_out3_mg0 <= 4
  timePath_phiC_5_in1_mg0 <= 4
  8 fork_13_phiC_5139_mg0_flop + timePath_phiC_5_in1_mg0 - timePath_fork_13_out3_mg0 >= 0
  timePath_forkC_14_out2_mg0 <= 4
  timePath_branchC_7_in1_mg0 <= 4
  8 forkC_14_branchC_7154_mg0_flop + timePath_branchC_7_in1_mg0 - timePath_forkC_14_out2_mg0 >= 0
  timePath_fork_16_out1_mg0 <= 4
  timePath_load_22_in2_mg0 <= 4
  8 fork_16_load_22115_mg0_flop + timePath_load_22_in2_mg0 - timePath_fork_16_out1_mg0 >= 0
  timePath_fork_16_out2_mg0 <= 4
  timePath_store_1_in2_mg0 <= 4
  8 fork_16_store_1122_mg0_flop + timePath_store_1_in2_mg0 - timePath_fork_16_out2_mg0 >= 0
  -timePath_phi_16_in1_mg0 + timePath_phi_16_out1_mg0 >= 0.366
  -timePath_phi_16_in2_mg0 + timePath_phi_16_out1_mg0 >= 0.366
  timePath_load_19_out1_mg0 = 0
  timePath_load_19_in2_mg0 <= 4
  timePath_load_22_out1_mg0 = 0
  timePath_load_22_in2_mg0 <= 4
  -timePath_add_23_in1_mg0 + timePath_add_23_out1_mg0 >= 1.693
  -timePath_add_23_in2_mg0 + timePath_add_23_out1_mg0 >= 1.693
  -timePath_cst_5_in1_mg0 + timePath_cst_5_out1_mg0 >= 0
  -timePath_add_26_in1_mg0 + timePath_add_26_out1_mg0 >= 1.693
  -timePath_add_26_in2_mg0 + timePath_add_26_out1_mg0 >= 1.693
  -timePath_cst_6_in1_mg0 + timePath_cst_6_out1_mg0 >= 0
  -timePath_icmp_27_in1_mg0 + timePath_icmp_27_out1_mg0 >= 1.53
  -timePath_icmp_27_in2_mg0 + timePath_icmp_27_out1_mg0 >= 1.53
  -timePath_phiC_2_in1_mg0 + timePath_phiC_2_out1_mg0 >= 0.166
  -timePath_phiC_2_in2_mg0 + timePath_phiC_2_out1_mg0 >= 0.166
  -timePath_phiC_5_in1_mg0 + timePath_phiC_5_out1_mg0 >= 0.166
  -timePath_phiC_5_in2_mg0 + timePath_phiC_5_out1_mg0 >= 0.166
  -timePath_branch_2_in1_mg0 + timePath_branch_2_out2_mg0 >= 0
  -timePath_branch_2_in2_mg0 + timePath_branch_2_out2_mg0 >= 0
  -timePath_phi_n7_in2_mg0 + timePath_phi_n7_out1_mg0 >= 0.366
  -timePath_branchC_5_in1_mg0 + timePath_branchC_5_out2_mg0 >= 0
  -timePath_branchC_5_in2_mg0 + timePath_branchC_5_out2_mg0 >= 0
  -timePath_branchC_7_in1_mg0 + timePath_branchC_7_out2_mg0 >= 0
  -timePath_branchC_7_in2_mg0 + timePath_branchC_7_out2_mg0 >= 0
  -timePath_fork_5_in1_mg0 + timePath_fork_5_out1_mg0 >= 0
  -timePath_fork_5_in1_mg0 + timePath_fork_5_out2_mg0 >= 0
  -timePath_fork_5_in1_mg0 + timePath_fork_5_out3_mg0 >= 0
  -timePath_fork_6_in1_mg0 + timePath_fork_6_out1_mg0 >= 0
  -timePath_fork_6_in1_mg0 + timePath_fork_6_out2_mg0 >= 0
  -timePath_fork_7_in1_mg0 + timePath_fork_7_out1_mg0 >= 0
  -timePath_fork_7_in1_mg0 + timePath_fork_7_out2_mg0 >= 0
  -timePath_fork_7_in1_mg0 + timePath_fork_7_out3_mg0 >= 0
  -timePath_fork_7_in1_mg0 + timePath_fork_7_out4_mg0 >= 0
  -timePath_forkC_10_in1_mg0 + timePath_forkC_10_out1_mg0 >= 0
  -timePath_forkC_10_in1_mg0 + timePath_forkC_10_out2_mg0 >= 0
  -timePath_forkC_10_in1_mg0 + timePath_forkC_10_out3_mg0 >= 0
  -timePath_fork_13_in1_mg0 + timePath_fork_13_out1_mg0 >= 0
  -timePath_fork_13_in1_mg0 + timePath_fork_13_out2_mg0 >= 0
  -timePath_fork_13_in1_mg0 + timePath_fork_13_out3_mg0 >= 0
  -timePath_forkC_14_in1_mg0 + timePath_forkC_14_out2_mg0 >= 0
  -timePath_fork_16_in1_mg0 + timePath_fork_16_out1_mg0 >= 0
  -timePath_fork_16_in1_mg0 + timePath_fork_16_out2_mg0 >= 0
  64 phi_16_fork_5158_mg0_flop - timeElastic_phi_16_out1_mg0 + timeElastic_fork_5_in1_mg0 >= 0
  -phi_16_fork_5158_mg0_flop + phi_16_fork_5158_mg0_slots >= 0
  0.99 phi_16_fork_5158_mg0_slots >= 0
  64 load_19_fork_16181_mg0_flop - timeElastic_load_19_out1_mg0 + timeElastic_fork_16_in1_mg0 >= 0
  -load_19_fork_16181_mg0_flop + load_19_fork_16181_mg0_slots >= 0
  -0.01 load_19_fork_16181_mg0_slots + load_19_fork_16181_mg0_hasBuffer >= 0
  64 load_22_add_23118_mg0_flop - timeElastic_load_22_out1_mg0 + timeElastic_add_23_in1_mg0 >= 0
  -load_22_add_23118_mg0_flop + load_22_add_23118_mg0_slots >= 0
  -0.01 load_22_add_23118_mg0_slots + load_22_add_23118_mg0_hasBuffer >= 0
  64 add_23_store_1121_mg0_flop - timeElastic_add_23_out1_mg0 + timeElastic_store_1_in1_mg0 >= 0
  -add_23_store_1121_mg0_flop + add_23_store_1121_mg0_slots >= 0
  -0.01 add_23_store_1121_mg0_slots + add_23_store_1121_mg0_hasBuffer >= 0
  64 cst_5_add_26128_mg0_flop - timeElastic_cst_5_out1_mg0 + timeElastic_add_26_in2_mg0 >= 0
  -cst_5_add_26128_mg0_flop + cst_5_add_26128_mg0_slots >= 0
  -0.01 cst_5_add_26128_mg0_slots + cst_5_add_26128_mg0_hasBuffer >= 0
  64 add_26_fork_6162_mg0_flop - timeElastic_add_26_out1_mg0 + timeElastic_fork_6_in1_mg0 >= 0
  -add_26_fork_6162_mg0_flop + add_26_fork_6162_mg0_slots >= 0
  -0.01 add_26_fork_6162_mg0_slots + add_26_fork_6162_mg0_hasBuffer >= 0
  64 cst_6_icmp_27133_mg0_flop - timeElastic_cst_6_out1_mg0 + timeElastic_icmp_27_in2_mg0 >= 0
  -cst_6_icmp_27133_mg0_flop + cst_6_icmp_27133_mg0_slots >= 0
  -0.01 cst_6_icmp_27133_mg0_slots + cst_6_icmp_27133_mg0_hasBuffer >= 0
  64 icmp_27_fork_7165_mg0_flop - timeElastic_icmp_27_out1_mg0 + timeElastic_fork_7_in1_mg0 >= 0
  -icmp_27_fork_7165_mg0_flop + icmp_27_fork_7165_mg0_slots >= 0
  -0.01 icmp_27_fork_7165_mg0_slots + icmp_27_fork_7165_mg0_hasBuffer >= 0
  64 phi_16_fork_5158_mg0_flop - timeElastic_phiC_2_out1_mg0 + timeElastic_forkC_10_in1_mg0 >= 0
  -phi_16_fork_5158_mg0_flop + phi_16_fork_5158_mg0_slots >= 0
  0.99 phi_16_fork_5158_mg0_slots >= 0
  64 phi_16_fork_5158_mg0_flop - timeElastic_phiC_5_out1_mg0 + timeElastic_forkC_14_in1_mg0 >= 0
  -phi_16_fork_5158_mg0_flop + phi_16_fork_5158_mg0_slots >= 0
  0.99 phi_16_fork_5158_mg0_slots >= 0
  64 branch_2_phi_16107_mg0_flop + timeElastic_phi_16_in2_mg0 - timeElastic_branch_2_out2_mg0 >= 0
  -branch_2_phi_16107_mg0_flop + branch_2_phi_16107_mg0_slots >= 0
  -0.01 branch_2_phi_16107_mg0_slots + branch_2_phi_16107_mg0_hasBuffer >= 0
  64 phi_16_fork_5158_mg0_flop - timeElastic_phi_n7_out1_mg0 + timeElastic_fork_13_in1_mg0 >= 0
  -phi_16_fork_5158_mg0_flop + phi_16_fork_5158_mg0_slots >= 0
  0.99 phi_16_fork_5158_mg0_slots >= 0
  64 branchC_5_phiC_2136_mg0_flop + timeElastic_phiC_2_in2_mg0 - timeElastic_branchC_5_out2_mg0 >= 0
  -branchC_5_phiC_2136_mg0_flop + branchC_5_phiC_2136_mg0_slots >= 0
  -0.01 branchC_5_phiC_2136_mg0_slots + branchC_5_phiC_2136_mg0_hasBuffer >= 0
  64 branchC_7_phiC_5140_mg0_flop + timeElastic_phiC_5_in2_mg0 - timeElastic_branchC_7_out2_mg0 >= 0
  -branchC_7_phiC_5140_mg0_flop + branchC_7_phiC_5140_mg0_slots >= 0
  -0.01 branchC_7_phiC_5140_mg0_slots + branchC_7_phiC_5140_mg0_hasBuffer >= 0
  64 fork_5_load_19111_mg0_flop + timeElastic_load_19_in2_mg0 - timeElastic_fork_5_out3_mg0 >= 0
  -fork_5_load_19111_mg0_flop + fork_5_load_19111_mg0_slots >= 0
  -0.01 fork_5_load_19111_mg0_slots + fork_5_load_19111_mg0_hasBuffer >= 0
  64 fork_5_add_23119_mg0_flop + timeElastic_add_23_in2_mg0 - timeElastic_fork_5_out1_mg0 >= 0
  -fork_5_add_23119_mg0_flop + fork_5_add_23119_mg0_slots >= 0
  -0.01 fork_5_add_23119_mg0_slots + fork_5_add_23119_mg0_hasBuffer >= 0
  64 fork_5_add_26127_mg0_flop + timeElastic_add_26_in1_mg0 - timeElastic_fork_5_out2_mg0 >= 0
  -fork_5_add_26127_mg0_flop + fork_5_add_26127_mg0_slots >= 0
  -0.01 fork_5_add_26127_mg0_slots + fork_5_add_26127_mg0_hasBuffer >= 0
  64 fork_6_icmp_27132_mg0_flop + timeElastic_icmp_27_in1_mg0 - timeElastic_fork_6_out1_mg0 >= 0
  -fork_6_icmp_27132_mg0_flop + fork_6_icmp_27132_mg0_slots >= 0
  -0.01 fork_6_icmp_27132_mg0_slots + fork_6_icmp_27132_mg0_hasBuffer >= 0
  64 fork_6_branch_2143_mg0_flop + timeElastic_branch_2_in1_mg0 - timeElastic_fork_6_out2_mg0 >= 0
  -fork_6_branch_2143_mg0_flop + fork_6_branch_2143_mg0_slots >= 0
  -0.01 fork_6_branch_2143_mg0_slots + fork_6_branch_2143_mg0_hasBuffer >= 0
  64 fork_7_branch_2144_mg0_flop + timeElastic_branch_2_in2_mg0 - timeElastic_fork_7_out1_mg0 >= 0
  -fork_7_branch_2144_mg0_flop + fork_7_branch_2144_mg0_slots >= 0
  -0.01 fork_7_branch_2144_mg0_slots + fork_7_branch_2144_mg0_hasBuffer >= 0
  64 fork_7_phi_n7148_mg0_flop + timeElastic_phi_n7_in2_mg0 - timeElastic_fork_7_out2_mg0 >= 0
  -fork_7_phi_n7148_mg0_flop + fork_7_phi_n7148_mg0_slots >= 0
  -0.01 fork_7_phi_n7148_mg0_slots + fork_7_phi_n7148_mg0_hasBuffer >= 0
  64 fork_7_branchC_5151_mg0_flop + timeElastic_branchC_5_in2_mg0 - timeElastic_fork_7_out3_mg0 >= 0
  -fork_7_branchC_5151_mg0_flop + fork_7_branchC_5151_mg0_slots >= 0
  -0.01 fork_7_branchC_5151_mg0_slots + fork_7_branchC_5151_mg0_hasBuffer >= 0
  64 fork_7_branchC_7155_mg0_flop + timeElastic_branchC_7_in2_mg0 - timeElastic_fork_7_out4_mg0 >= 0
  -fork_7_branchC_7155_mg0_flop + fork_7_branchC_7155_mg0_slots >= 0
  -0.01 fork_7_branchC_7155_mg0_slots + fork_7_branchC_7155_mg0_hasBuffer >= 0
  64 forkC_10_cst_5125_mg0_flop + timeElastic_cst_5_in1_mg0 - timeElastic_forkC_10_out1_mg0 >= 0
  -forkC_10_cst_5125_mg0_flop + forkC_10_cst_5125_mg0_slots >= 0
  -0.01 forkC_10_cst_5125_mg0_slots + forkC_10_cst_5125_mg0_hasBuffer >= 0
  64 forkC_10_cst_6130_mg0_flop + timeElastic_cst_6_in1_mg0 - timeElastic_forkC_10_out3_mg0 >= 0
  -forkC_10_cst_6130_mg0_flop + forkC_10_cst_6130_mg0_slots >= 0
  -0.01 forkC_10_cst_6130_mg0_slots + forkC_10_cst_6130_mg0_hasBuffer >= 0
  64 forkC_10_branchC_5150_mg0_flop + timeElastic_branchC_5_in1_mg0 - timeElastic_forkC_10_out2_mg0 >= 0
  -forkC_10_branchC_5150_mg0_flop + forkC_10_branchC_5150_mg0_slots >= 0
  -0.01 forkC_10_branchC_5150_mg0_slots + forkC_10_branchC_5150_mg0_hasBuffer >= 0
  64 fork_13_phi_16106_mg0_flop + timeElastic_phi_16_in1_mg0 - timeElastic_fork_13_out1_mg0 >= 0
  -fork_13_phi_16106_mg0_flop + fork_13_phi_16106_mg0_slots >= 0
  -0.01 fork_13_phi_16106_mg0_slots + fork_13_phi_16106_mg0_hasBuffer >= 0
  64 fork_13_phiC_2135_mg0_flop + timeElastic_phiC_2_in1_mg0 - timeElastic_fork_13_out2_mg0 >= 0
  -fork_13_phiC_2135_mg0_flop + fork_13_phiC_2135_mg0_slots >= 0
  -0.01 fork_13_phiC_2135_mg0_slots + fork_13_phiC_2135_mg0_hasBuffer >= 0
  64 fork_13_phiC_5139_mg0_flop + timeElastic_phiC_5_in1_mg0 - timeElastic_fork_13_out3_mg0 >= 0
  -fork_13_phiC_5139_mg0_flop + fork_13_phiC_5139_mg0_slots >= 0
  -0.01 fork_13_phiC_5139_mg0_slots + fork_13_phiC_5139_mg0_hasBuffer >= 0
  64 phi_16_fork_5158_mg0_slots + timeElastic_branchC_7_in1_mg0 - timeElastic_forkC_14_out2_mg0 >= 0
  0.99 phi_16_fork_5158_mg0_slots >= 0
  64 fork_16_load_22115_mg0_flop + timeElastic_load_22_in2_mg0 - timeElastic_fork_16_out1_mg0 >= 0
  -fork_16_load_22115_mg0_flop + fork_16_load_22115_mg0_slots >= 0
  -0.01 fork_16_load_22115_mg0_slots + fork_16_load_22115_mg0_hasBuffer >= 0
  64 fork_16_store_1122_mg0_flop + timeElastic_store_1_in2_mg0 - timeElastic_fork_16_out2_mg0 >= 0
  -fork_16_store_1122_mg0_flop + fork_16_store_1122_mg0_slots >= 0
  -0.01 fork_16_store_1122_mg0_slots + fork_16_store_1122_mg0_hasBuffer >= 0
  -timeElastic_phi_16_in1_mg0 + timeElastic_phi_16_out1_mg0 >= 1
  -timeElastic_phi_16_in2_mg0 + timeElastic_phi_16_out1_mg0 >= 1
  -timeElastic_load_19_in2_mg0 + timeElastic_load_19_out1_mg0 >= 1
  -timeElastic_load_22_in2_mg0 + timeElastic_load_22_out1_mg0 >= 1
  -timeElastic_add_23_in1_mg0 + timeElastic_add_23_out1_mg0 >= 1
  -timeElastic_add_23_in2_mg0 + timeElastic_add_23_out1_mg0 >= 1
  -timeElastic_cst_5_in1_mg0 + timeElastic_cst_5_out1_mg0 >= 1
  -timeElastic_add_26_in1_mg0 + timeElastic_add_26_out1_mg0 >= 1
  -timeElastic_add_26_in2_mg0 + timeElastic_add_26_out1_mg0 >= 1
  -timeElastic_cst_6_in1_mg0 + timeElastic_cst_6_out1_mg0 >= 1
  -timeElastic_icmp_27_in1_mg0 + timeElastic_icmp_27_out1_mg0 >= 1
  -timeElastic_icmp_27_in2_mg0 + timeElastic_icmp_27_out1_mg0 >= 1
  -timeElastic_phiC_2_in1_mg0 + timeElastic_phiC_2_out1_mg0 >= 1
  -timeElastic_phiC_2_in2_mg0 + timeElastic_phiC_2_out1_mg0 >= 1
  -timeElastic_phiC_5_in1_mg0 + timeElastic_phiC_5_out1_mg0 >= 1
  -timeElastic_phiC_5_in2_mg0 + timeElastic_phiC_5_out1_mg0 >= 1
  -timeElastic_branch_2_in1_mg0 + timeElastic_branch_2_out2_mg0 >= 1
  -timeElastic_branch_2_in2_mg0 + timeElastic_branch_2_out2_mg0 >= 1
  -timeElastic_phi_n7_in2_mg0 + timeElastic_phi_n7_out1_mg0 >= 1
  -timeElastic_branchC_5_in1_mg0 + timeElastic_branchC_5_out2_mg0 >= 1
  -timeElastic_branchC_5_in2_mg0 + timeElastic_branchC_5_out2_mg0 >= 1
  -timeElastic_branchC_7_in1_mg0 + timeElastic_branchC_7_out2_mg0 >= 1
  -timeElastic_branchC_7_in2_mg0 + timeElastic_branchC_7_out2_mg0 >= 1
  -timeElastic_fork_5_in1_mg0 + timeElastic_fork_5_out1_mg0 >= 1
  -timeElastic_fork_5_in1_mg0 + timeElastic_fork_5_out2_mg0 >= 1
  -timeElastic_fork_5_in1_mg0 + timeElastic_fork_5_out3_mg0 >= 1
  -timeElastic_fork_6_in1_mg0 + timeElastic_fork_6_out1_mg0 >= 1
  -timeElastic_fork_6_in1_mg0 + timeElastic_fork_6_out2_mg0 >= 1
  -timeElastic_fork_7_in1_mg0 + timeElastic_fork_7_out1_mg0 >= 1
  -timeElastic_fork_7_in1_mg0 + timeElastic_fork_7_out2_mg0 >= 1
  -timeElastic_fork_7_in1_mg0 + timeElastic_fork_7_out3_mg0 >= 1
  -timeElastic_fork_7_in1_mg0 + timeElastic_fork_7_out4_mg0 >= 1
  -timeElastic_forkC_10_in1_mg0 + timeElastic_forkC_10_out1_mg0 >= 1
  -timeElastic_forkC_10_in1_mg0 + timeElastic_forkC_10_out2_mg0 >= 1
  -timeElastic_forkC_10_in1_mg0 + timeElastic_forkC_10_out3_mg0 >= 1
  -timeElastic_fork_13_in1_mg0 + timeElastic_fork_13_out1_mg0 >= 1
  -timeElastic_fork_13_in1_mg0 + timeElastic_fork_13_out2_mg0 >= 1
  -timeElastic_fork_13_in1_mg0 + timeElastic_fork_13_out3_mg0 >= 1
  -timeElastic_forkC_14_in1_mg0 + timeElastic_forkC_14_out2_mg0 >= 1
  -timeElastic_fork_16_in1_mg0 + timeElastic_fork_16_out1_mg0 >= 1
  -timeElastic_fork_16_in1_mg0 + timeElastic_fork_16_out2_mg0 >= 1
  inRetimeTok_phi_16_mg0_submg0 - inRetimeTok_fork_5_mg0_submg0 + thTok_phi_16_fork_5158_mg0_submg0 = 0
  phi_16_fork_5158_mg0_flop + x224 - thTok_phi_16_fork_5158_mg0_submg0 <= 1
  phi_16_fork_5158_mg0_flop - phi_16_fork_5158_mg0_slots + x224 + thTok_phi_16_fork_5158_mg0_submg0 <= 1
  -phi_16_fork_5158_mg0_slots + thTok_phi_16_fork_5158_mg0_submg0 <= 0
  outRetimeTok_load_19_mg0_submg0 - inRetimeTok_fork_16_mg0_submg0 + thTok_load_19_fork_16181_mg0_submg0 = 0
  load_19_fork_16181_mg0_flop + x224 - thTok_load_19_fork_16181_mg0_submg0 <= 1
  load_19_fork_16181_mg0_flop - load_19_fork_16181_mg0_slots + x224 + thTok_load_19_fork_16181_mg0_submg0 <= 1
  -load_19_fork_16181_mg0_slots + thTok_load_19_fork_16181_mg0_submg0 <= 0
  outRetimeTok_load_22_mg0_submg0 - inRetimeTok_add_23_mg0_submg0 + thTok_load_22_add_23118_mg0_submg0 = 0
  load_22_add_23118_mg0_flop + x224 - thTok_load_22_add_23118_mg0_submg0 <= 1
  load_22_add_23118_mg0_flop - load_22_add_23118_mg0_slots + x224 + thTok_load_22_add_23118_mg0_submg0 <= 1
  -load_22_add_23118_mg0_slots + thTok_load_22_add_23118_mg0_submg0 <= 0
  inRetimeTok_cst_5_mg0_submg0 - inRetimeTok_add_26_mg0_submg0 + thTok_cst_5_add_26128_mg0_submg0 = 0
  cst_5_add_26128_mg0_flop + x224 - thTok_cst_5_add_26128_mg0_submg0 <= 1
  cst_5_add_26128_mg0_flop - cst_5_add_26128_mg0_slots + x224 + thTok_cst_5_add_26128_mg0_submg0 <= 1
  -cst_5_add_26128_mg0_slots + thTok_cst_5_add_26128_mg0_submg0 <= 0
  inRetimeTok_add_26_mg0_submg0 - inRetimeTok_fork_6_mg0_submg0 + thTok_add_26_fork_6162_mg0_submg0 = 0
  add_26_fork_6162_mg0_flop + x224 - thTok_add_26_fork_6162_mg0_submg0 <= 1
  add_26_fork_6162_mg0_flop - add_26_fork_6162_mg0_slots + x224 + thTok_add_26_fork_6162_mg0_submg0 <= 1
  -add_26_fork_6162_mg0_slots + thTok_add_26_fork_6162_mg0_submg0 <= 0
  inRetimeTok_cst_6_mg0_submg0 - inRetimeTok_icmp_27_mg0_submg0 + thTok_cst_6_icmp_27133_mg0_submg0 = 0
  cst_6_icmp_27133_mg0_flop + x224 - thTok_cst_6_icmp_27133_mg0_submg0 <= 1
  cst_6_icmp_27133_mg0_flop - cst_6_icmp_27133_mg0_slots + x224 + thTok_cst_6_icmp_27133_mg0_submg0 <= 1
  -cst_6_icmp_27133_mg0_slots + thTok_cst_6_icmp_27133_mg0_submg0 <= 0
  inRetimeTok_icmp_27_mg0_submg0 - inRetimeTok_fork_7_mg0_submg0 + thTok_icmp_27_fork_7165_mg0_submg0 = 0
  icmp_27_fork_7165_mg0_flop + x224 - thTok_icmp_27_fork_7165_mg0_submg0 <= 1
  icmp_27_fork_7165_mg0_flop - icmp_27_fork_7165_mg0_slots + x224 + thTok_icmp_27_fork_7165_mg0_submg0 <= 1
  -icmp_27_fork_7165_mg0_slots + thTok_icmp_27_fork_7165_mg0_submg0 <= 0
  inRetimeTok_phiC_2_mg0_submg0 - inRetimeTok_forkC_10_mg0_submg0 + thTok_phiC_2_forkC_10170_mg0_submg0 = 0
  phiC_2_forkC_10170_mg0_flop + x224 - thTok_phiC_2_forkC_10170_mg0_submg0 <= 1
  phiC_2_forkC_10170_mg0_flop - phiC_2_forkC_10170_mg0_slots + x224 + thTok_phiC_2_forkC_10170_mg0_submg0 <= 1
  -phiC_2_forkC_10170_mg0_slots + thTok_phiC_2_forkC_10170_mg0_submg0 <= 0
  inRetimeTok_phiC_5_mg0_submg0 - inRetimeTok_forkC_14_mg0_submg0 + thTok_phiC_5_forkC_14178_mg0_submg0 = 0
  phiC_5_forkC_14178_mg0_flop + x224 - thTok_phiC_5_forkC_14178_mg0_submg0 <= 1
  phiC_5_forkC_14178_mg0_flop - phiC_5_forkC_14178_mg0_slots + x224 + thTok_phiC_5_forkC_14178_mg0_submg0 <= 1
  -phiC_5_forkC_14178_mg0_slots + thTok_phiC_5_forkC_14178_mg0_submg0 <= 0
  -inRetimeTok_phi_16_mg0_submg0 + inRetimeTok_branch_2_mg0_submg0 + thTok_branch_2_phi_16107_mg0_submg0 = 1
  branch_2_phi_16107_mg0_flop + x224 - thTok_branch_2_phi_16107_mg0_submg0 <= 1
  branch_2_phi_16107_mg0_flop - branch_2_phi_16107_mg0_slots + x224 + thTok_branch_2_phi_16107_mg0_submg0 <= 1
  -branch_2_phi_16107_mg0_slots + thTok_branch_2_phi_16107_mg0_submg0 <= 0
  inRetimeTok_phi_n7_mg0_submg0 - inRetimeTok_fork_13_mg0_submg0 + thTok_phi_n7_fork_13174_mg0_submg0 = 0
  phi_n7_fork_13174_mg0_flop + x224 - thTok_phi_n7_fork_13174_mg0_submg0 <= 1
  phi_n7_fork_13174_mg0_flop - phi_n7_fork_13174_mg0_slots + x224 + thTok_phi_n7_fork_13174_mg0_submg0 <= 1
  -phi_n7_fork_13174_mg0_slots + thTok_phi_n7_fork_13174_mg0_submg0 <= 0
  -inRetimeTok_phiC_2_mg0_submg0 + inRetimeTok_branchC_5_mg0_submg0 + thTok_branchC_5_phiC_2136_mg0_submg0 = 1
  branchC_5_phiC_2136_mg0_flop + x224 - thTok_branchC_5_phiC_2136_mg0_submg0 <= 1
  branchC_5_phiC_2136_mg0_flop - branchC_5_phiC_2136_mg0_slots + x224 + thTok_branchC_5_phiC_2136_mg0_submg0 <= 1
  -branchC_5_phiC_2136_mg0_slots + thTok_branchC_5_phiC_2136_mg0_submg0 <= 0
  -inRetimeTok_phiC_5_mg0_submg0 + inRetimeTok_branchC_7_mg0_submg0 + thTok_branchC_7_phiC_5140_mg0_submg0 = 1
  branchC_7_phiC_5140_mg0_flop + x224 - thTok_branchC_7_phiC_5140_mg0_submg0 <= 1
  branchC_7_phiC_5140_mg0_flop - branchC_7_phiC_5140_mg0_slots + x224 + thTok_branchC_7_phiC_5140_mg0_submg0 <= 1
  -branchC_7_phiC_5140_mg0_slots + thTok_branchC_7_phiC_5140_mg0_submg0 <= 0
  -inRetimeTok_load_19_mg0_submg0 + inRetimeTok_fork_5_mg0_submg0 + thTok_fork_5_load_19111_mg0_submg0 = 0
  fork_5_load_19111_mg0_flop + x224 - thTok_fork_5_load_19111_mg0_submg0 <= 1
  fork_5_load_19111_mg0_flop - fork_5_load_19111_mg0_slots + x224 + thTok_fork_5_load_19111_mg0_submg0 <= 1
  -fork_5_load_19111_mg0_slots + thTok_fork_5_load_19111_mg0_submg0 <= 0
  -inRetimeTok_add_23_mg0_submg0 + inRetimeTok_fork_5_mg0_submg0 + thTok_fork_5_add_23119_mg0_submg0 = 0
  fork_5_add_23119_mg0_flop + x224 - thTok_fork_5_add_23119_mg0_submg0 <= 1
  fork_5_add_23119_mg0_flop - fork_5_add_23119_mg0_slots + x224 + thTok_fork_5_add_23119_mg0_submg0 <= 1
  -fork_5_add_23119_mg0_slots + thTok_fork_5_add_23119_mg0_submg0 <= 0
  -inRetimeTok_add_26_mg0_submg0 + inRetimeTok_fork_5_mg0_submg0 + thTok_fork_5_add_26127_mg0_submg0 = 0
  fork_5_add_26127_mg0_flop + x224 - thTok_fork_5_add_26127_mg0_submg0 <= 1
  fork_5_add_26127_mg0_flop - fork_5_add_26127_mg0_slots + x224 + thTok_fork_5_add_26127_mg0_submg0 <= 1
  -fork_5_add_26127_mg0_slots + thTok_fork_5_add_26127_mg0_submg0 <= 0
  -inRetimeTok_icmp_27_mg0_submg0 + inRetimeTok_fork_6_mg0_submg0 + thTok_fork_6_icmp_27132_mg0_submg0 = 0
  fork_6_icmp_27132_mg0_flop + x224 - thTok_fork_6_icmp_27132_mg0_submg0 <= 1
  fork_6_icmp_27132_mg0_flop - fork_6_icmp_27132_mg0_slots + x224 + thTok_fork_6_icmp_27132_mg0_submg0 <= 1
  -fork_6_icmp_27132_mg0_slots + thTok_fork_6_icmp_27132_mg0_submg0 <= 0
  -inRetimeTok_branch_2_mg0_submg0 + inRetimeTok_fork_6_mg0_submg0 + thTok_fork_6_branch_2143_mg0_submg0 = 0
  fork_6_branch_2143_mg0_flop + x224 - thTok_fork_6_branch_2143_mg0_submg0 <= 1
  fork_6_branch_2143_mg0_flop - fork_6_branch_2143_mg0_slots + x224 + thTok_fork_6_branch_2143_mg0_submg0 <= 1
  -fork_6_branch_2143_mg0_slots + thTok_fork_6_branch_2143_mg0_submg0 <= 0
  -inRetimeTok_branch_2_mg0_submg0 + inRetimeTok_fork_7_mg0_submg0 + thTok_fork_7_branch_2144_mg0_submg0 = 0
  fork_7_branch_2144_mg0_flop + x224 - thTok_fork_7_branch_2144_mg0_submg0 <= 1
  fork_7_branch_2144_mg0_flop - fork_7_branch_2144_mg0_slots + x224 + thTok_fork_7_branch_2144_mg0_submg0 <= 1
  -fork_7_branch_2144_mg0_slots + thTok_fork_7_branch_2144_mg0_submg0 <= 0
  -inRetimeTok_phi_n7_mg0_submg0 + inRetimeTok_fork_7_mg0_submg0 + thTok_fork_7_phi_n7148_mg0_submg0 = 1
  fork_7_phi_n7148_mg0_flop + x224 - thTok_fork_7_phi_n7148_mg0_submg0 <= 1
  fork_7_phi_n7148_mg0_flop - fork_7_phi_n7148_mg0_slots + x224 + thTok_fork_7_phi_n7148_mg0_submg0 <= 1
  -fork_7_phi_n7148_mg0_slots + thTok_fork_7_phi_n7148_mg0_submg0 <= 0
  -inRetimeTok_branchC_5_mg0_submg0 + inRetimeTok_fork_7_mg0_submg0 + thTok_fork_7_branchC_5151_mg0_submg0 = 0
  fork_7_branchC_5151_mg0_flop + x224 - thTok_fork_7_branchC_5151_mg0_submg0 <= 1
  fork_7_branchC_5151_mg0_flop - fork_7_branchC_5151_mg0_slots + x224 + thTok_fork_7_branchC_5151_mg0_submg0 <= 1
  -fork_7_branchC_5151_mg0_slots + thTok_fork_7_branchC_5151_mg0_submg0 <= 0
  -inRetimeTok_branchC_7_mg0_submg0 + inRetimeTok_fork_7_mg0_submg0 + thTok_fork_7_branchC_7155_mg0_submg0 = 0
  fork_7_branchC_7155_mg0_flop + x224 - thTok_fork_7_branchC_7155_mg0_submg0 <= 1
  fork_7_branchC_7155_mg0_flop - fork_7_branchC_7155_mg0_slots + x224 + thTok_fork_7_branchC_7155_mg0_submg0 <= 1
  -fork_7_branchC_7155_mg0_slots + thTok_fork_7_branchC_7155_mg0_submg0 <= 0
  -inRetimeTok_cst_5_mg0_submg0 + inRetimeTok_forkC_10_mg0_submg0 + thTok_forkC_10_cst_5125_mg0_submg0 = 0
  forkC_10_cst_5125_mg0_flop + x224 - thTok_forkC_10_cst_5125_mg0_submg0 <= 1
  forkC_10_cst_5125_mg0_flop - forkC_10_cst_5125_mg0_slots + x224 + thTok_forkC_10_cst_5125_mg0_submg0 <= 1
  -forkC_10_cst_5125_mg0_slots + thTok_forkC_10_cst_5125_mg0_submg0 <= 0
  -inRetimeTok_cst_6_mg0_submg0 + inRetimeTok_forkC_10_mg0_submg0 + thTok_forkC_10_cst_6130_mg0_submg0 = 0
  forkC_10_cst_6130_mg0_flop + x224 - thTok_forkC_10_cst_6130_mg0_submg0 <= 1
  forkC_10_cst_6130_mg0_flop - forkC_10_cst_6130_mg0_slots + x224 + thTok_forkC_10_cst_6130_mg0_submg0 <= 1
  -forkC_10_cst_6130_mg0_slots + thTok_forkC_10_cst_6130_mg0_submg0 <= 0
  -inRetimeTok_branchC_5_mg0_submg0 + inRetimeTok_forkC_10_mg0_submg0 + thTok_forkC_10_branchC_5150_mg0_submg0 = 0
  forkC_10_branchC_5150_mg0_flop + x224 - thTok_forkC_10_branchC_5150_mg0_submg0 <= 1
  forkC_10_branchC_5150_mg0_flop - forkC_10_branchC_5150_mg0_slots + x224 + thTok_forkC_10_branchC_5150_mg0_submg0 <= 1
  -forkC_10_branchC_5150_mg0_slots + thTok_forkC_10_branchC_5150_mg0_submg0 <= 0
  -inRetimeTok_phi_16_mg0_submg0 + inRetimeTok_fork_13_mg0_submg0 + thTok_fork_13_phi_16106_mg0_submg0 = 0
  fork_13_phi_16106_mg0_flop + x224 - thTok_fork_13_phi_16106_mg0_submg0 <= 1
  fork_13_phi_16106_mg0_flop - fork_13_phi_16106_mg0_slots + x224 + thTok_fork_13_phi_16106_mg0_submg0 <= 1
  -fork_13_phi_16106_mg0_slots + thTok_fork_13_phi_16106_mg0_submg0 <= 0
  -inRetimeTok_phiC_2_mg0_submg0 + inRetimeTok_fork_13_mg0_submg0 + thTok_fork_13_phiC_2135_mg0_submg0 = 0
  fork_13_phiC_2135_mg0_flop + x224 - thTok_fork_13_phiC_2135_mg0_submg0 <= 1
  fork_13_phiC_2135_mg0_flop - fork_13_phiC_2135_mg0_slots + x224 + thTok_fork_13_phiC_2135_mg0_submg0 <= 1
  -fork_13_phiC_2135_mg0_slots + thTok_fork_13_phiC_2135_mg0_submg0 <= 0
  -inRetimeTok_phiC_5_mg0_submg0 + inRetimeTok_fork_13_mg0_submg0 + thTok_fork_13_phiC_5139_mg0_submg0 = 0
  fork_13_phiC_5139_mg0_flop + x224 - thTok_fork_13_phiC_5139_mg0_submg0 <= 1
  fork_13_phiC_5139_mg0_flop - fork_13_phiC_5139_mg0_slots + x224 + thTok_fork_13_phiC_5139_mg0_submg0 <= 1
  -fork_13_phiC_5139_mg0_slots + thTok_fork_13_phiC_5139_mg0_submg0 <= 0
  -inRetimeTok_branchC_7_mg0_submg0 + inRetimeTok_forkC_14_mg0_submg0 + thTok_forkC_14_branchC_7154_mg0_submg0 = 0
  forkC_14_branchC_7154_mg0_flop + x224 - thTok_forkC_14_branchC_7154_mg0_submg0 <= 1
  forkC_14_branchC_7154_mg0_flop - forkC_14_branchC_7154_mg0_slots + x224 + thTok_forkC_14_branchC_7154_mg0_submg0 <= 1
  -forkC_14_branchC_7154_mg0_slots + thTok_forkC_14_branchC_7154_mg0_submg0 <= 0
  -inRetimeTok_load_22_mg0_submg0 + inRetimeTok_fork_16_mg0_submg0 + thTok_fork_16_load_22115_mg0_submg0 = 0
  fork_16_load_22115_mg0_flop + x224 - thTok_fork_16_load_22115_mg0_submg0 <= 1
  fork_16_load_22115_mg0_flop - fork_16_load_22115_mg0_slots + x224 + thTok_fork_16_load_22115_mg0_submg0 <= 1
  -fork_16_load_22115_mg0_slots + thTok_fork_16_load_22115_mg0_submg0 <= 0
  -inRetimeTok_load_19_mg0_submg0 + outRetimeTok_load_19_mg0_submg0 <= 2
  -2 x224 - inRetimeTok_load_19_mg0_submg0 + outRetimeTok_load_19_mg0_submg0 >= 0
  -inRetimeTok_load_22_mg0_submg0 + outRetimeTok_load_22_mg0_submg0 <= 5
  -5 x224 - inRetimeTok_load_22_mg0_submg0 + outRetimeTok_load_22_mg0_submg0 >= 0
General
  phi_16_fork_5158_mg0_slots load_19_fork_16181_mg0_slots load_22_add_23118_mg0_slots add_23_store_1121_mg0_slots cst_5_add_26128_mg0_slots add_26_fork_6162_mg0_slots cst_6_icmp_27133_mg0_slots icmp_27_fork_7165_mg0_slots phiC_2_forkC_10170_mg0_slots phiC_5_forkC_14178_mg0_slots branch_2_phi_16107_mg0_slots phi_n7_fork_13174_mg0_slots branchC_5_phiC_2136_mg0_slots branchC_7_phiC_5140_mg0_slots fork_5_load_19111_mg0_slots fork_5_add_23119_mg0_slots fork_5_add_26127_mg0_slots fork_6_icmp_27132_mg0_slots fork_6_branch_2143_mg0_slots fork_7_branch_2144_mg0_slots fork_7_phi_n7148_mg0_slots fork_7_branchC_5151_mg0_slots fork_7_branchC_7155_mg0_slots forkC_10_cst_5125_mg0_slots forkC_10_cst_6130_mg0_slots forkC_10_branchC_5150_mg0_slots fork_13_phi_16106_mg0_slots fork_13_phiC_2135_mg0_slots fork_13_phiC_5139_mg0_slots forkC_14_branchC_7154_mg0_slots fork_16_load_22115_mg0_slots fork_16_store_1122_mg0_slots
Binary
  phi_16_fork_5158_mg0_flop phi_16_fork_5158_mg0_hasBuffer load_19_fork_16181_mg0_flop load_19_fork_16181_mg0_hasBuffer load_22_add_23118_mg0_flop load_22_add_23118_mg0_hasBuffer add_23_store_1121_mg0_flop add_23_store_1121_mg0_hasBuffer cst_5_add_26128_mg0_flop cst_5_add_26128_mg0_hasBuffer add_26_fork_6162_mg0_flop add_26_fork_6162_mg0_hasBuffer cst_6_icmp_27133_mg0_flop cst_6_icmp_27133_mg0_hasBuffer icmp_27_fork_7165_mg0_flop icmp_27_fork_7165_mg0_hasBuffer phiC_2_forkC_10170_mg0_flop phiC_2_forkC_10170_mg0_hasBuffer phiC_5_forkC_14178_mg0_flop phiC_5_forkC_14178_mg0_hasBuffer branch_2_phi_16107_mg0_flop branch_2_phi_16107_mg0_hasBuffer phi_n7_fork_13174_mg0_flop phi_n7_fork_13174_mg0_hasBuffer branchC_5_phiC_2136_mg0_flop branchC_5_phiC_2136_mg0_hasBuffer branchC_7_phiC_5140_mg0_flop branchC_7_phiC_5140_mg0_hasBuffer fork_5_load_19111_mg0_flop fork_5_load_19111_mg0_hasBuffer fork_5_add_23119_mg0_flop fork_5_add_23119_mg0_hasBuffer fork_5_add_26127_mg0_flop fork_5_add_26127_mg0_hasBuffer fork_6_icmp_27132_mg0_flop fork_6_icmp_27132_mg0_hasBuffer fork_6_branch_2143_mg0_flop fork_6_branch_2143_mg0_hasBuffer fork_7_branch_2144_mg0_flop fork_7_branch_2144_mg0_hasBuffer fork_7_phi_n7148_mg0_flop fork_7_phi_n7148_mg0_hasBuffer fork_7_branchC_5151_mg0_flop fork_7_branchC_5151_mg0_hasBuffer fork_7_branchC_7155_mg0_flop fork_7_branchC_7155_mg0_hasBuffer forkC_10_cst_5125_mg0_flop forkC_10_cst_5125_mg0_hasBuffer forkC_10_cst_6130_mg0_flop forkC_10_cst_6130_mg0_hasBuffer forkC_10_branchC_5150_mg0_flop forkC_10_branchC_5150_mg0_hasBuffer fork_13_phi_16106_mg0_flop fork_13_phi_16106_mg0_hasBuffer fork_13_phiC_2135_mg0_flop fork_13_phiC_2135_mg0_hasBuffer fork_13_phiC_5139_mg0_flop fork_13_phiC_5139_mg0_hasBuffer forkC_14_branchC_7154_mg0_flop forkC_14_branchC_7154_mg0_hasBuffer fork_16_load_22115_mg0_flop fork_16_load_22115_mg0_hasBuffer fork_16_store_1122_mg0_flop fork_16_store_1122_mg0_hasBuffer
End
